NAME: line_39_94
TYPE: TSP
COMMENT: srandom_39_94
DIMENSION: 39
EDGE_WEIGHT_TYPE: EUC_2D
NODE_COORD_SECTION
1 85 284
2 2711 3930
3 643 1637
4 4587 3916
5 2926 4963
6 4075 871
7 3711 3805
8 1954 556
9 3413 395
10 564 2669
11 364 2675
12 4837 952
13 338 905
14 4735 2354
15 2260 4771
16 3275 2467
17 4841 2968
18 2227 623
19 4210 200
20 3234 2623
21 3017 1559
22 3334 3948
23 1846 724
24 2078 292
25 2183 3479
26 1741 680
27 2419 2005
28 4431 1476
29 3291 4610
30 670 1931
31 3204 2328
32 3954 1577
33 29 1494
34 3091 3695
35 777 3851
36 1740 599
37 1146 3771
38 415 864
39 3166 1785
